25368,
24737,
23305,
23305,
22781,
21365,
21088,
19817,
19737,
19681,
18971,
18780,
18497,
18072,
17439,
16895,
16750,
16513,
16044,
16044,
15926,
15874,
15777,
15720,
15720,
15720,
15720,
15720,
15720,
15720,
15720,
15720,
15720,
15720,
15720,
15720,
15720,
15720,
15720,
15720,
15720,
15720,
15720,
15720,
15720,
15720,
15720,
15720,
15720,
15720,
15720,
15720,
15720,
15720,
15720,
15720,
15720,
15720,
15720,
15720,
15720,
15720,
15720,
15720,
15720,
15720,
15720,
15720,
15720,
15720,
15720,
15720,
15720,
15720,
15720,
15358,
15358,
15358,
15358,
15358,
15358,
15358,
15358,
15358,
15073,
15073,
15073,
15073,
15073,
15073,
15073,
15073,
15073,
15073,
15073,
14978,
14978,
14978,
14978,
14978,
14957,
14957,
14957,
14957,
14957,
14957,
14957,
14957,
14957,
14957,
14957,
14957,
14957,
14957,
14957,
14957,
14957,
14957,
14957,
14909,
14909,
14903,
14903,
14903,
14903,
14903,
14903,
14903,
14903,
14903,
14903,
14903,
14903,
14903,
14903,
14903,
14903,
14903,
14903,
14903,
14903,
14903,
14903,
14893,
14893,
14893,
14893,
14893,
14893,
14893,
14893,
14893,
14893,
14893,
14893,
14893,
14893,
14893,
14893,
14893,
14893,
14893,
14893,
14893,
14893,
14858,
14858,
14858,
14765,
14765,
14765,
14765,
14672,
14672,
14672,
14672,
14672,
14672,
14672,
14672,
14556,
14556,
14556,
14556,
14556,
14556,
14548,
14548,
14548,
14548,
14544,
14544,
14544,
14544,
14544,
14544,
14489,
14489,
14489,
14489,
14489,
14489,
14489,
14489,
14489,
14489,
14489,
14489,
14489,
14489,
14489,
14489,
14425,
14425,
14425,
14425,
14425,
14425,
14425,
14425,
14332,
14267,
14174,
14174,
14153,
14153,
14153,
14081,
14081,
14081,
14081,
14081,
14081,
14081,
14081,
14081,
14081,
14081,
14081,
14081,
14081,
14081,
14081,
14081,
14081,
14081,
14081,
14081,
14081,
14081,
14081,
14081,
14081,
14081,
14081,
14081,
14081,
14081,
14081,
14081,
14081,
14078,
14078,
14078,
14078,
14078,
14078,
13937,
13937,
13937,
13937,
13934,
13934,
13934,
13934,
13934,
13934,
13934,
13934,
13934,
13934,
13934,
13934,
13934,
13934,
13934,
13934,
13934,
13934,
13934,
13934,
13934,
13934,
13934,
13934,
13934,
13934,
13934,
13934,
13934,
13934,
13934,
13905,
13905,
13905,
13905,
13905,
13905,
13905,
13905,
13905,
13905,
13905,
13841,
13841,
13841,
13682,
13682,
13682,
13682,
13682,
13682,
13682,
13682,
13682,
13682,
13639,
13639,
13639,
13639,
13639,
13639,
13639,
13639,
13639,
13639,
13639,
13639,
13639,
13639,
13639,
13639,
13639,
13639,
13639,
13639,
13639,
13583,
13583,
13583,
13583,
13583,
13583,
13583,
13583,
13583,
13583,
13583,
13583,
13583,
13583,
13583,
13583,
13583,
13583,
13583,
13583,
13583,
13583,
13583,
13583,
13583,
13583,
13583,
13583,
13583,
13583,
13583,
13528,
13528,
13528,
13528,
13528,
13528,
13528,
13528,
13528,
13528,
13528,
13528,
13528,
13528,
13528,
13528,
13528,
13528,
13528,
13528,
13528,
13528,
13528,
13528,
13528,
13528,
13528,
13528,
13528,
13528,
13528,
13527,
13527,
13527,
13527,
13527,
13527,
13527,
13405,
13405,
13405,
13405,
13405,
13405,
13399,
13399,
13399,
13399,
13399,
13399,
13399,
13399,
13399,
13399,
13399,
13399,
13399,
13399,
13399,
13110,
13110,
13110,
13110,
13110,
13110,
13110,
13110,
13110,
13110,
13110,
13110,
13110,
13110,
13110,
13110,
13110,
13110,
13110,
13110,
13110,
13110,
13110,
13110,
13110,
13110,
13110,
13110,
13110,
13110,
13110,
13110,
13110,
13110,
13110,
13110,
13110,
13110,
13110,
13110,
13110,
13110,
13110,
13110,
13110,
13110,
13110,
13110,
13110,
13110,
13049,
13049,
13049,
13049,
13049,
13049,
13049,
13049,
13049,
13049,
13049,
13049,
13049,
13049,
13049,
13049,
13049,
13049,
13049,
13049,
13049,
13049,
13049,
13049,
13049,
13049,
13049,
13049,
13049,
13049,
13049,
13017,
13017,
13017,
13017,
13017,
13017,
13017,
13017,
13017,
13017,
13017,
13017,
13017,
13017,
13017,
13017,
13017,
13017,
13017,
13017,
13017,
13017,
13017,
13017,
13017,
13017,
13017,
13017,
13017,
13017,
13017,
13017,
13017,
13017,
13017,
13017,
13017,
13017,
13017,
13017,
13017,
13017,
13017,
13017,
13017,
13017,
13017,
13017,
13017,
13017,
13017,
13017,
13017,
13017,
13017,
13017,
13017,
13017,
13017,
13017,
13017,
13017,
13017,
13017,
13017,
13017,
13017,
13017,
13017,
13017,
13017,
13017,
13017,
13017,
13017,
13017,
13017,
13017,
13017,
13017,
13017,
13017,
13017,
13017,
13017,
13017,
13017,
13017,
13017,
13017,
13017,
13017,
13017,
13017,
13017,
13017,
13016,
13016,
13016,
13016,
13016,
13016,
13016,
13016,
13016,
13016,
13016,
13016,
13016,
13016,
13016,
12986,
12986,
12986,
12986,
12986,
12986,
12986,
12986,
12986,
12986,
12986,
12986,
12986,
12986,
12986,
12986,
12986,
12986,
12986,
12986,
12986,
12986,
12986,
12986,
12986,
12986,
12986,
12986,
12986,
12986,
12986,
12986,
12986,
12986,
12986,
12986,
12986,
12986,
12986,
12986,
12986,
12986,
12986,
12986,
12986,
12986,
12986,
12986,
12986,
12986,
12986,
12986,
12986,
12986,
12986,
12986,
12986,
12986,
12986,
12986,
12986,
12986,
12986,
12986,
12986,
12986,
12986,
12986,
12986,
12986,
12986,
12986,
12986,
12986,
12986,
12986,
12986,
12986,
12986,
12986,
12986,
12986,
12986,
12986,
12986,
12986,
12986,
12986,
12986,
12986,
12986,
12986,
12986,
12986,
12986,
12986,
12986,
12986,
12957,
12957,
12957,
12957,
12957,
12882,
12882,
12882,
12882,
12882,
12882,
12882,
12882,
12882,
12882,
12882,
12882,
12882,
12882,
12882,
12882,
12882,
12882,
12882,
12882,
12882,
12767,
12767,
12767,
12767,
12767,
12767,
12767,
12767,
12767,
12767,
12767,
12767,
12767,
12767,
12767,
12767,
12767,
12767,
12767,
12767,
12767,
12767,
12767,
12767,
12767,
12767,
12767,
12767,
12767,
12767,
12767,
12767,
12665,
12665,
12665,
12665,
12651,
12651,
12651,
12651,
12635,
12635,
12635,
12635,
12635,
12635,
12635,
12635,
12635,
12635,
12635,
12635,
12635,
12635,
12635,
12635,
12635,
12635,
12635,
12635,
12635,
12635,
12635,
12635,
12635,
12635,
12635,
12635,
12635,
12635,
12608,
12608,
12608,
12608,
12608,
12608,
12608,
12608,
12608,
12608,
12608,
12608,
12608,
12608,
12608,
12608,
12608,
12608,
12608,
12608,
12608,
12608,
12608,
12608,
12608,
12608,
12608,
12608,
12608,
12608,
12608,
12608,
12608,
12608,
12608,
12608,
12608,
12608,
12608,
12608,
12608,
12608,
12608,
12608,
12608,
12608,
12608,
12608,
12545,
12545,
12545,
12545,
12545,
12545,
12545,
12545,
12545,
12545,
12545,
12545,
12545,
12545,
12545,
12545,
12545,
12545,
12545,
12545,
12545,
12545,
12545,
12545,
12545,
12545,
12545,
12545,
12545,
12545,
12545,
12545,
12545,
12545,
12545,
12545,
12545,
12545,
12545,
12545,
12545,
12545,
12545,
12545,
12545,
12545,
12545,
12545,
12545,
12545,
12545,
12545,
12545,
12545,
12545,
12545,
12545,
12545,
12468,
12468,
12468,
12468,
12468,
12468,
12468,
12468,
12139,
12139,
12139,
12139,
12139,
12139,
12139,
12139,
12139,
12139,
12139,
12139,
12139,
12139,
12139,
12139,
12139,
12139,
12139,
12109,
12109,
12109,
12109,
12109,
12109,
12109,
12109,
12109,
12109,
12109,
12109,
12109,
12109,
12109,
12109,
12109,
12109,
12109,
12109,
12098,
12098,
12098,
12098,
12098,
12098,
12098,
12098,
12098,
12098,
12098,
12098,
12097,
12097,
12097,
12097,
12097,
12097,
12097,
12097,
12097,
12097,
12097,
12097,
12097,
12097,
12097,
12097,
12097,
12097,
12097,
12097,
12097,
12097,
12097,
12097,
12097,
12097,
12097,
12097,
12097,
12097,
12097,
12097,
12097,
12097,
12097,
12097,
12097,
12097,
12097,
12097,
12097,
12097,
12013,
12013,
12013,
12013,
12013,
12013,
12013,
12013,
12013,
12013,
12013,
12013,
12013,
12013,
12013,
12013,
12013,
12013,
12013,
12013,
12013,
12013,
12013,
11996,
11996,
11996,
11996,
11996,
11996,
11996,
11996,
11996,
11996,
11996,
11996,
11996,
11996,
11996,
11996,
11996,
11996,
11996,
11996,
11996,
11996,
11996,
11996,
11996,
11996,
11996,
11996,
11996,
11996,
11996,
11996,
11996,
11996,
11996,
11996,
11996,
11996,
11996,
11996,
11996,
11996,
11996,
11996,
11996,
11996,
11996,
11996,
11996,
11996,
11996,
11996,
11996,
11996,
11996,
11996,
11996,
11996,
11996,
11996,
11996,
11996,
11996,
11996,
11996,
11996,
11996,
11996,
11996,
11985,
11985,
11985,
11985,
11985,
11985,
11985,
11985,
11985,
11985,
11985,
11985,
11985,
11985,
11985,
11985,
11985,
11985,
11985,
11985,
11985,
11985,
11985,
11985,
11985,
11985,
11985,
11985,
11985,
11985,
11985,
11985,
11985,
11985,
11985,
11985,
11985,
11985,
11985,
11985,
11985,
11985,
11985,
11985,
11985,
11985,
11985,
11985,
11985,
11985,
11985,
11985,
11985,
11985,
11985,
11985,
11985,
11985,
11985,
11985,
11985,
11985,
11985,
11985,
11985,
11985,
11985,
11985,
11985,
11985,
11985,
11985,
11985,
11985,
11985,
11985,
11985,
11985,
11985,
11985,
11985,
11985,
11985,
11985,
11985,
11985,
11985,
11985,
11985,
11985,
11985,
11985,
11985,
11985,
11985,
11985,
11985,
11985,
11985,
11985,
11985,
11985,
11985,
11985,
11985,
11985,
11985,
11985,
11985,
11985,
11985,
11985,
11985,
11985,
11985,
11985,
11985,
11985,
11985,
11985,
11985,
11985,
11985,
11985,
11985,
11985,
11985,
11985,
11985,
11985,
11985,
11985,
11985,
11985,
11925,
11925,
11866,
11866,
11866,
11866,
11866,
11866,
11866,
11866,
11866,
11866,
11866,
11866,
11866,
11866,
11866,
11866,
11866,
11866,
11866,
11866,
11866,
11866,
11866,
11866,
11866,
11866,
11866,
11866,
11866,
11866,
11866,
11866,
11866,
11866,
11866,
11866,
11866,
11866,
11866,
11866,
11866,
11866,
11866,
11866,
11866,
11866,
11866,
11866,
11866,
11866,
11866,
11866,
11866,
11866,
11866,
11866,
11866,
11866,
11866,
11866,
11866,
11866,
11866,
11866,
11866,
11866,
11866,
11866,
11866,
11866,
11866,
11866,
11866,
11866,
11866,
11866,
11866,
11866,
11866,
11866,
11866,
11866,
11866,
11866,
11866,
11866,
11866,
11866,
11866,
11866,
11866,
11866,
11866,
11866,
11866,
11826,
11826,
11826,
11826,
11826,
11826,
11826,
11826,
11826,
11826,
11826,
11826,
11826,
11826,
11826,
11826,
11826,
11826,
11826,
11826,
11826,
11826,
11826,
11826,
11826,
11826,
11826,
11826,
11826,
11826,
11826,
11826,
11826,
11826,
11826,
11826,
11826,
11826,
11826,
11826,
11826,
11826,
11826,
11826,
11826,
11826,
11826,
11826,
11826,
11826,
11826,
11826,
11826,
11826,
11826,
11826,
11826,
11826,
11826,
11826,
11826,
11826,
11826,
11826,
11826,
11826,
11826,
11826,
11826,
11826,
11826,
11826,
11826,
11826,
11826,
11826,
11826,
11826,
11826,
11826,
11826,
11826,
11826,
11826,
11826,
11826,
11826,
11826,
11826,
11826,
11826,
11826,
11826,
11826,
11826,
11826,
11826,
11826,
11826,
11826,
11826,
11826,
11826,
11826,
11826,
11826,
11826,
11826,
11826,
11826,
11826,
11826,
11826,
11826,
11826,
11826,
11826,
11826,
11826,
11826,
11826,
11826,
11826,
11826,
11826,
11826,
11826,
11826,
11826,
11826,
11826,
11826,
11826,
11826,
11826,
11826,
11826,
11826,
11826,
11826,
11826,
11826,
11826,
11826,
11826,
11826,
11826,
11826,
1,
